s 1
v 1 -2 3 4 5 -6 7 8 -9 -10 -11 -12 13 -14 15 -16 -17 18 19 20 21 22 2105376107 24 -25 -26 27 -2105376148 -29 -30 31 32 33 34 -35 -36 -37 -1936946066 39 -40 41 -42 43 1600085820 45 -46 47 -48 -49 -50 -51 -52 53 54 55 84215000 -57 -58 -59 -60 -61 -62 63 -64 -65 -66 -67 68 69 1179010574 71 -72 -1347440779 74 75 421075164 -77 78 -79 80 -81 -336860246 83 -84 85 86 87 88 -1936946107 90 91 -92 93 -94 1600085779 -96 -97 98 99 -100 -101 102 -842150533 -104 -105 -106 -107 -757935492 -1600085943 -110 
t 158ms